proyfinal/src/viki/013/andrea/andrea-localstore/experimentInOfficeAgust.take6/worker_11/9169f83c-fcdf-430f-8dd4-6dd598b1f1a7.als.cnf.out
Reading from standard input... Use '--help' for help.
============================[ Problem Statistics ]=============================
|                                                                             |
|  Number of variables:         87638                                         |
|  Number of clauses:          161767                                         |
|  Parse time:                   0.04 s                                       |
|                                                                             |
============================[ Search Statistics ]==============================
| Conflicts |          ORIGINAL         |          LEARNT          | Progress |
|           |    Vars  Clauses Literals |    Limit  Clauses Lit/Cl |          |
===============================================================================
|       100 |   63847   110430   276046 |    40491       99     39 | 27.147 % |
|       250 |   63794   110286   275727 |    44540      247     48 | 27.207 % |
|       475 |   63794   110168   275453 |    48994      472     79 | 27.207 % |
|       812 |   63794   110168   275453 |    53893      809     82 | 27.207 % |
|      1318 |   63794   110168   275453 |    59282     1315     92 | 27.207 % |
|      2077 |   63726   110060   275206 |    65211     2069     86 | 27.285 % |
|      3216 |   63726   109884   274802 |    71732     3207     94 | 27.285 % |
|      4924 |   63726   109884   274802 |    78905     4915     89 | 27.285 % |
|      7486 |   63671   109623   274216 |    86796     6048     86 | 27.348 % |
|     11330 |   63625   109545   274029 |    95475     9217     97 | 27.400 % |
|     17096 |   49644    67073   169668 |   105023    13510     84 | 43.353 % |
===============================================================================
restarts              : 63
conflicts             : 18742          (5802 /sec)
decisions             : 60964          (0.00 % random) (18873 /sec)
propagations          : 29893267       (9254291 /sec)
conflict literals     : 1523641        (53.06 % deleted)
Memory used           : 41.45 MB
CPU time              : 3.23021 s

UNSATISFIABLE
